#(C) 2011 by Fachinformationszentrum Karlsruhe. All rights reserved.
data_1831-ICSD
_database_code_ICSD 1831
_audit_creation_date 1980-01-01
_audit_update_record 2008-08-01
_chemical_name_systematic 'Dicopper divanadate - alpha'
_chemical_formula_structural 'Cu2 (V2 O7)'
_chemical_formula_sum 'Cu2 O7 V2'
_chemical_name_structure_type Cu2V2O7
_chemical_name_mineral Blossite
_exptl_crystal_density_diffrn 4.06
_publ_section_title 'Alpha cupric divanadate'
loop_
_citation_id
_citation_journal_full
_citation_year
_citation_journal_volume
_citation_page_first
_citation_page_last
_citation_journal_id_ASTM
primary 'Acta Crystallographica B (24,1968-38,1982)' 1975 31 603 605 ACBCAR
loop_
_publ_author_name
'Calvo, C.'
'Faggiani, R.'
_cell_length_a 20.645(20)
_cell_length_b 8.383(7)
_cell_length_c 6.442(12)
_cell_angle_alpha 90.
_cell_angle_beta 90.
_cell_angle_gamma 90.
_cell_volume 1114.9
_cell_formula_units_Z 8
_symmetry_space_group_name_H-M 'F d d 2'
_symmetry_Int_Tables_number 43
_refine_ls_R_factor_all 0.028
loop_
_symmetry_equiv_pos_site_id
_symmetry_equiv_pos_as_xyz
1 'x+1/4, -y+1/4, z+1/4'
2 '-x+1/4, y+1/4, z+1/4'
3 '-x, -y, z'
4 'x, y, z'
5 'x+1/4, -y+3/4, z+3/4'
6 '-x+1/4, y+3/4, z+3/4'
7 '-x, -y+1/2, z+1/2'
8 'x, y+1/2, z+1/2'
9 'x+3/4, -y+1/4, z+3/4'
10 '-x+3/4, y+1/4, z+3/4'
11 '-x+1/2, -y, z+1/2'
12 'x+1/2, y, z+1/2'
13 'x+3/4, -y+3/4, z+1/4'
14 '-x+3/4, y+3/4, z+1/4'
15 '-x+1/2, -y+1/2, z'
16 'x+1/2, y+1/2, z'
loop_
_atom_type_symbol
_atom_type_oxidation_number
Cu2+ 2
V5+ 5
O2- -2
loop_
_atom_site_label
_atom_site_type_symbol
_atom_site_symmetry_multiplicity
_atom_site_Wyckoff_symbol
_atom_site_fract_x
_atom_site_fract_y
_atom_site_fract_z
_atom_site_B_iso_or_equiv
_atom_site_occupancy
_atom_site_attached_hydrogens
Cu1 Cu2+ 16 b 0.16580(4) 0.36460(9) 0.75 . 1. 0
V1 V5+ 16 b 0.19906(4) 0.4054(1) 0.2343(2) . 1. 0
O1 O2- 16 b 0.2453(2) 0.5622(6) 0.2774(8) . 1. 0
O2 O2- 16 b 0.1446(2) 0.4368(5) 0.0332(7) . 1. 0
O3 O2- 16 b 0.1619(2) 0.3477(5) 0.4592(8) . 1. 0
O4 O2- 8 a 0.25 0.25 0.1592(12) . 1. 0
loop_
_atom_site_aniso_label
_atom_site_aniso_type_symbol
_atom_site_aniso_U_11
_atom_site_aniso_U_22
_atom_site_aniso_U_33
_atom_site_aniso_U_12
_atom_site_aniso_U_13
_atom_site_aniso_U_23
Cu1 Cu2+ 0.0184(3) 0.0265(4) 0.0058(3) 0.0120(3) -.0032(3) -.0046(3)
V1 V5+ 0.0039(3) 0.0101(4) 0.0011(3) -.0001(3) 0.0001(3) 0.0003(4)
O1 O2- 0.0150(2) 0.0340(2) 0.0130(2) 0.0130(2) -.0010(2) -.0010(2)
O2 O2- 0.0100(1) 0.0140(2) 0.0060(2) 0.0040(1) 0.0010(1) -.0040(2)
O3 O2- 0.0150(2) 0.0160(2) 0.0070(2) 0.00020(1) 0.0020(2) 0.0010(2)
O4 O2- 0.0290(3) 0.0420(4) 0.0140(3) -.029(3) 0 0
#End of data_1831-ICSD
